(set-info :Origin "This instance was generated by: BanditFuzz-- an RL fuzzer for SMT solvers" )
(set-info :Author "Joe Scott, Fed Mora, Vijay Ganesh" )
(set-info :Contact "Joe Scott, joseph.scott@uwaterloo.ca")
(set-logic QF_BV)
(declare-const bool_0 Bool)
(declare-const bool_1 Bool)
(declare-const bool_2 Bool)
(declare-const bool_3 Bool)
(declare-const bool_4 Bool)
(declare-const bv_0 (_ BitVec 32))
(declare-const bv_1 (_ BitVec 32))
(declare-const bv_2 (_ BitVec 32))
(declare-const bv_3 (_ BitVec 32))
(declare-const bv_4 (_ BitVec 32))
(assert (or (and (=> bool_2 true) (bvule #x6bebc504  bv_3)) (bvsgt (bvmul #x82d72379  #x4b597652 ) (bvsmod #x037657a5  #x8168cabc ))))
(assert (bvsle (bvudiv (bvurem bv_0 #x41905009 ) (bvlshr bv_4 bv_3)) (bvsmod (bvsub bv_2 #x627968bb ) (bvsmod bv_2 bv_0))))
(assert (=> (xor (=> bool_2 false) (bvult #x216679ea  #x5143f02c )) (bvuge (bvsub #xe3411237  bv_1) (bvlshr bv_4 #x6b767740 ))))
(assert (bvsge (bvxnor (bvadd #xc7192460  #xa6ceadd8 ) (bvudiv bv_3 #xc90f40a7 )) (bvashr (bvashr bv_2 #x13ece0eb ) (bvnand bv_1 bv_2))))
(assert (bvule (bvsub (bvsrem bv_3 bv_0) (bvnand #x47ce2e56  #xa83acd0e )) (bvlshr (bvlshr #xd3ef39f0  bv_1) (bvxor #xebf2e005  bv_2))))
(check-sat)
(exit)
